71
0 19 28 6 51 43 63 39 66 7 
8 29 54 32 56 59 5 21 14 30 
60 62 23 50 61 68 3 12 2 46 
44 58 20 48 25 53 37 40 22 35 
27 47 24 9 42 41 1 4 17 16 
36 33 49 45 67 52 64 11 65 69 
70 38 34 18 31 57 26 15 13 55 
10 
